desiredZ=[1];
nNurses = 104;
hours = 39;
demand = [25 3 15 2 25 19 21 19 4 6 1 14 2 4 4 23 20 7 25 4 3 9 20 2 20 14 20 8 1 2 18 13 19 5 7 5 22 18 4];
minHours = 6;
maxHours = 21;
maxConsec = 10;
maxPresence = 22;